c File: data_files/evolved_graphs/g0487.col
c
c Auto generated graph
c
p edge 100 2010
e 1 4
e 1 6
e 1 7
e 1 15
e 1 17
e 1 22
e 1 25
e 1 26
e 1 31
e 1 32
e 1 33
e 1 35
e 1 37
e 1 41
e 1 42
e 1 44
e 1 45
e 1 48
e 1 61
e 1 66
e 1 67
e 1 80
e 1 87
e 1 89
e 1 94
e 1 95
e 2 7
e 2 8
e 2 11
e 2 12
e 2 13
e 2 19
e 2 21
e 2 22
e 2 28
e 2 29
e 2 30
e 2 31
e 2 36
e 2 39
e 2 41
e 2 43
e 2 45
e 2 46
e 2 49
e 2 59
e 2 90
e 2 96
e 3 5
e 3 7
e 3 10
e 3 12
e 3 14
e 3 16
e 3 25
e 3 37
e 3 38
e 3 39
e 3 41
e 3 42
e 3 44
e 3 45
e 3 62
e 3 63
e 3 72
e 3 74
e 3 75
e 3 77
e 3 78
e 3 87
e 4 5
e 4 11
e 4 12
e 4 13
e 4 19
e 4 21
e 4 22
e 4 24
e 4 30
e 4 31
e 4 32
e 4 35
e 4 37
e 4 39
e 4 41
e 4 48
e 4 56
e 4 69
e 4 82
e 4 96
e 5 17
e 5 21
e 5 23
e 5 26
e 5 29
e 5 30
e 5 31
e 5 32
e 5 46
e 5 62
e 5 74
e 5 82
e 5 85
e 5 99
e 6 7
e 6 9
e 6 14
e 6 15
e 6 24
e 6 25
e 6 26
e 6 27
e 6 30
e 6 31
e 6 35
e 6 36
e 6 41
e 6 56
e 6 65
e 6 75
e 6 78
e 6 85
e 6 90
e 6 94
e 6 95
e 6 100
e 7 8
e 7 9
e 7 10
e 7 11
e 7 13
e 7 14
e 7 23
e 7 25
e 7 27
e 7 28
e 7 29
e 7 30
e 7 33
e 7 43
e 7 44
e 7 45
e 7 47
e 7 61
e 7 85
e 7 86
e 7 89
e 7 97
e 8 9
e 8 10
e 8 12
e 8 17
e 8 23
e 8 24
e 8 29
e 8 32
e 8 33
e 8 35
e 8 38
e 8 39
e 8 43
e 8 48
e 8 66
e 8 79
e 8 80
e 8 91
e 8 97
e 9 10
e 9 14
e 9 20
e 9 21
e 9 23
e 9 24
e 9 28
e 9 31
e 9 34
e 9 39
e 9 41
e 9 42
e 9 43
e 9 48
e 9 60
e 9 77
e 9 99
e 10 11
e 10 12
e 10 13
e 10 17
e 10 21
e 10 24
e 10 26
e 10 27
e 10 28
e 10 29
e 10 36
e 10 41
e 10 43
e 10 44
e 10 45
e 10 46
e 10 48
e 10 53
e 10 77
e 10 79
e 10 84
e 10 91
e 10 94
e 10 99
e 11 13
e 11 15
e 11 18
e 11 24
e 11 29
e 11 33
e 11 34
e 11 37
e 11 39
e 11 44
e 11 57
e 11 77
e 11 79
e 11 87
e 11 100
e 12 17
e 12 20
e 12 21
e 12 23
e 12 25
e 12 26
e 12 29
e 12 30
e 12 35
e 12 38
e 12 40
e 12 53
e 12 62
e 12 83
e 13 18
e 13 20
e 13 23
e 13 24
e 13 25
e 13 28
e 13 35
e 13 37
e 13 41
e 13 42
e 13 43
e 13 45
e 13 49
e 13 51
e 13 53
e 13 57
e 13 58
e 13 59
e 13 60
e 13 64
e 13 65
e 13 67
e 13 69
e 13 70
e 13 72
e 13 73
e 13 76
e 13 77
e 13 78
e 13 79
e 13 85
e 13 90
e 13 91
e 13 93
e 13 94
e 13 95
e 13 97
e 13 99
e 13 100
e 14 15
e 14 17
e 14 19
e 14 21
e 14 22
e 14 29
e 14 34
e 14 37
e 14 39
e 14 43
e 14 50
e 14 51
e 14 52
e 14 57
e 14 62
e 14 63
e 14 64
e 14 67
e 14 68
e 14 69
e 14 73
e 14 74
e 14 75
e 14 76
e 14 79
e 14 87
e 14 88
e 14 90
e 14 91
e 14 92
e 14 93
e 14 96
e 14 98
e 15 17
e 15 23
e 15 26
e 15 27
e 15 28
e 15 30
e 15 31
e 15 36
e 15 37
e 15 47
e 15 48
e 15 49
e 15 50
e 15 52
e 15 53
e 15 55
e 15 58
e 15 60
e 15 63
e 15 65
e 15 67
e 15 69
e 15 70
e 15 71
e 15 72
e 15 74
e 15 78
e 15 79
e 15 80
e 15 81
e 15 83
e 15 84
e 15 85
e 15 86
e 15 87
e 15 88
e 15 90
e 15 92
e 15 93
e 15 96
e 16 17
e 16 18
e 16 20
e 16 21
e 16 24
e 16 25
e 16 29
e 16 36
e 16 37
e 16 39
e 16 40
e 16 43
e 16 47
e 16 48
e 16 49
e 16 50
e 16 51
e 16 55
e 16 58
e 16 61
e 16 63
e 16 64
e 16 66
e 16 67
e 16 71
e 16 72
e 16 73
e 16 75
e 16 76
e 16 77
e 16 78
e 16 79
e 16 82
e 16 83
e 16 84
e 16 85
e 16 86
e 16 87
e 16 90
e 16 92
e 16 96
e 17 18
e 17 19
e 17 22
e 17 25
e 17 29
e 17 33
e 17 34
e 17 36
e 17 40
e 17 42
e 17 49
e 17 51
e 17 56
e 17 58
e 17 59
e 17 60
e 17 61
e 17 62
e 17 64
e 17 66
e 17 70
e 17 73
e 17 76
e 17 77
e 17 78
e 17 79
e 17 80
e 17 82
e 17 83
e 17 85
e 17 86
e 17 88
e 17 93
e 17 94
e 17 99
e 17 100
e 18 19
e 18 20
e 18 21
e 18 22
e 18 23
e 18 25
e 18 27
e 18 33
e 18 34
e 18 37
e 18 40
e 18 41
e 18 44
e 18 45
e 18 48
e 18 52
e 18 54
e 18 58
e 18 59
e 18 60
e 18 62
e 18 64
e 18 69
e 18 71
e 18 72
e 18 77
e 18 82
e 18 83
e 18 85
e 18 86
e 18 90
e 18 91
e 18 92
e 18 93
e 18 94
e 18 96
e 18 97
e 18 100
e 19 20
e 19 26
e 19 37
e 19 41
e 19 46
e 19 48
e 19 49
e 19 59
e 19 63
e 19 65
e 19 67
e 19 68
e 19 70
e 19 71
e 19 72
e 19 73
e 19 76
e 19 77
e 19 78
e 19 79
e 19 81
e 19 85
e 19 88
e 19 89
e 19 90
e 19 93
e 19 94
e 19 95
e 19 96
e 19 97
e 20 21
e 20 22
e 20 23
e 20 25
e 20 31
e 20 33
e 20 34
e 20 35
e 20 36
e 20 39
e 20 42
e 20 45
e 20 50
e 20 51
e 20 53
e 20 54
e 20 55
e 20 58
e 20 59
e 20 61
e 20 62
e 20 63
e 20 65
e 20 68
e 20 69
e 20 70
e 20 71
e 20 72
e 20 73
e 20 76
e 20 77
e 20 79
e 20 80
e 20 84
e 20 85
e 20 86
e 20 88
e 20 90
e 20 91
e 20 93
e 20 94
e 20 95
e 20 96
e 20 97
e 20 98
e 20 99
e 20 100
e 21 22
e 21 23
e 21 24
e 21 25
e 21 28
e 21 36
e 21 37
e 21 39
e 21 42
e 21 44
e 21 49
e 21 50
e 21 51
e 21 52
e 21 57
e 21 58
e 21 60
e 21 61
e 21 64
e 21 65
e 21 66
e 21 67
e 21 69
e 21 71
e 21 72
e 21 76
e 21 77
e 21 78
e 21 81
e 21 83
e 21 86
e 21 89
e 21 90
e 21 93
e 21 94
e 21 95
e 21 96
e 21 97
e 21 98
e 21 99
e 21 100
e 22 23
e 22 24
e 22 25
e 22 26
e 22 27
e 22 29
e 22 30
e 22 31
e 22 32
e 22 33
e 22 35
e 22 36
e 22 47
e 22 48
e 22 53
e 22 54
e 22 55
e 22 58
e 22 59
e 22 61
e 22 63
e 22 64
e 22 67
e 22 68
e 22 69
e 22 72
e 22 73
e 22 78
e 22 84
e 22 85
e 22 86
e 22 89
e 22 91
e 22 95
e 22 96
e 22 98
e 23 24
e 23 25
e 23 27
e 23 30
e 23 40
e 23 44
e 23 57
e 23 59
e 23 63
e 23 64
e 23 67
e 23 70
e 23 74
e 23 75
e 23 76
e 23 77
e 23 80
e 23 81
e 23 83
e 23 86
e 23 87
e 23 88
e 23 89
e 23 90
e 23 92
e 23 93
e 23 94
e 23 95
e 23 97
e 23 98
e 24 27
e 24 28
e 24 32
e 24 36
e 24 42
e 24 44
e 24 49
e 24 50
e 24 54
e 24 56
e 24 57
e 24 59
e 24 60
e 24 61
e 24 63
e 24 64
e 24 65
e 24 68
e 24 70
e 24 75
e 24 76
e 24 77
e 24 78
e 24 80
e 24 82
e 24 85
e 24 87
e 24 88
e 24 89
e 24 90
e 24 91
e 24 94
e 24 100
e 25 27
e 25 28
e 25 31
e 25 41
e 25 42
e 25 44
e 25 50
e 25 52
e 25 53
e 25 54
e 25 55
e 25 56
e 25 60
e 25 61
e 25 62
e 25 63
e 25 66
e 25 67
e 25 68
e 25 69
e 25 72
e 25 74
e 25 79
e 25 81
e 25 82
e 25 84
e 25 85
e 25 86
e 25 88
e 25 89
e 25 90
e 25 94
e 25 96
e 25 97
e 25 98
e 26 27
e 26 28
e 26 29
e 26 32
e 26 38
e 26 39
e 26 44
e 26 46
e 26 48
e 26 49
e 26 51
e 26 53
e 26 55
e 26 58
e 26 59
e 26 61
e 26 62
e 26 65
e 26 67
e 26 68
e 26 71
e 26 75
e 26 77
e 26 82
e 26 83
e 26 87
e 26 90
e 26 91
e 26 92
e 26 96
e 26 97
e 26 98
e 26 99
e 26 100
e 27 28
e 27 32
e 27 33
e 27 35
e 27 36
e 27 37
e 27 46
e 27 49
e 27 50
e 27 54
e 27 55
e 27 56
e 27 57
e 27 58
e 27 60
e 27 61
e 27 63
e 27 64
e 27 66
e 27 74
e 27 75
e 27 76
e 27 77
e 27 78
e 27 80
e 27 81
e 27 84
e 27 85
e 27 86
e 27 88
e 27 95
e 27 96
e 27 98
e 28 35
e 28 36
e 28 40
e 28 46
e 28 47
e 28 50
e 28 51
e 28 53
e 28 54
e 28 56
e 28 58
e 28 59
e 28 60
e 28 61
e 28 62
e 28 63
e 28 65
e 28 66
e 28 70
e 28 71
e 28 74
e 28 77
e 28 78
e 28 82
e 28 85
e 28 87
e 28 89
e 28 91
e 28 92
e 28 94
e 28 96
e 28 97
e 28 99
e 29 32
e 29 33
e 29 39
e 29 40
e 29 41
e 29 44
e 29 46
e 29 47
e 29 48
e 29 54
e 29 55
e 29 56
e 29 57
e 29 59
e 29 63
e 29 64
e 29 65
e 29 68
e 29 70
e 29 73
e 29 76
e 29 78
e 29 80
e 29 81
e 29 84
e 29 86
e 29 88
e 29 89
e 29 92
e 29 95
e 29 98
e 29 100
e 30 31
e 30 32
e 30 33
e 30 34
e 30 37
e 30 38
e 30 39
e 30 43
e 30 51
e 30 54
e 30 57
e 30 58
e 30 59
e 30 60
e 30 61
e 30 63
e 30 64
e 30 65
e 30 69
e 30 73
e 30 74
e 30 76
e 30 77
e 30 78
e 30 80
e 30 81
e 30 83
e 30 85
e 30 86
e 30 87
e 30 88
e 30 91
e 30 92
e 30 93
e 30 95
e 30 96
e 30 97
e 30 99
e 30 100
e 31 32
e 31 40
e 31 41
e 31 43
e 31 51
e 31 52
e 31 57
e 31 58
e 31 62
e 31 65
e 31 67
e 31 71
e 31 72
e 31 73
e 31 76
e 31 78
e 31 81
e 31 85
e 31 86
e 31 88
e 31 90
e 31 92
e 31 93
e 31 96
e 31 97
e 31 98
e 31 100
e 32 33
e 32 34
e 32 38
e 32 42
e 32 43
e 32 45
e 32 46
e 32 50
e 32 53
e 32 56
e 32 60
e 32 62
e 32 65
e 32 70
e 32 73
e 32 74
e 32 75
e 32 77
e 32 79
e 32 82
e 32 83
e 32 85
e 32 86
e 32 87
e 32 88
e 32 90
e 32 91
e 32 96
e 32 100
e 33 36
e 33 38
e 33 39
e 33 40
e 33 43
e 33 44
e 33 50
e 33 52
e 33 56
e 33 57
e 33 58
e 33 59
e 33 60
e 33 61
e 33 64
e 33 65
e 33 66
e 33 69
e 33 70
e 33 72
e 33 75
e 33 76
e 33 77
e 33 81
e 33 90
e 33 92
e 33 93
e 33 94
e 33 95
e 33 96
e 33 97
e 33 99
e 33 100
e 34 35
e 34 36
e 34 38
e 34 39
e 34 41
e 34 44
e 34 46
e 34 48
e 34 50
e 34 53
e 34 54
e 34 56
e 34 57
e 34 58
e 34 59
e 34 60
e 34 61
e 34 63
e 34 68
e 34 71
e 34 72
e 34 73
e 34 75
e 34 76
e 34 80
e 34 82
e 34 85
e 34 87
e 34 90
e 34 92
e 34 93
e 34 96
e 34 97
e 34 98
e 34 99
e 35 38
e 35 41
e 35 44
e 35 46
e 35 49
e 35 51
e 35 52
e 35 55
e 35 56
e 35 57
e 35 61
e 35 63
e 35 66
e 35 67
e 35 69
e 35 70
e 35 71
e 35 74
e 35 80
e 35 82
e 35 83
e 35 86
e 35 87
e 35 88
e 35 89
e 35 90
e 35 91
e 35 92
e 35 95
e 35 96
e 35 99
e 36 37
e 36 40
e 36 47
e 36 49
e 36 51
e 36 52
e 36 53
e 36 56
e 36 59
e 36 60
e 36 62
e 36 63
e 36 65
e 36 66
e 36 69
e 36 70
e 36 71
e 36 72
e 36 73
e 36 75
e 36 77
e 36 79
e 36 80
e 36 82
e 36 84
e 36 85
e 36 87
e 36 89
e 36 90
e 36 91
e 36 94
e 36 95
e 36 96
e 36 97
e 36 98
e 36 99
e 36 100
e 37 38
e 37 40
e 37 45
e 37 51
e 37 58
e 37 59
e 37 60
e 37 62
e 37 65
e 37 68
e 37 69
e 37 70
e 37 73
e 37 74
e 37 77
e 37 79
e 37 84
e 37 87
e 37 90
e 37 91
e 37 93
e 37 94
e 37 98
e 37 99
e 37 100
e 38 39
e 38 44
e 38 45
e 38 50
e 38 51
e 38 52
e 38 54
e 38 55
e 38 58
e 38 59
e 38 63
e 38 64
e 38 65
e 38 66
e 38 67
e 38 70
e 38 71
e 38 72
e 38 73
e 38 75
e 38 76
e 38 77
e 38 83
e 38 85
e 38 88
e 38 91
e 38 92
e 38 96
e 38 97
e 38 98
e 39 40
e 39 43
e 39 45
e 39 46
e 39 47
e 39 49
e 39 52
e 39 55
e 39 59
e 39 60
e 39 63
e 39 65
e 39 68
e 39 70
e 39 74
e 39 75
e 39 76
e 39 77
e 39 78
e 39 79
e 39 80
e 39 82
e 39 84
e 39 85
e 39 88
e 39 90
e 39 91
e 39 95
e 39 97
e 39 99
e 40 41
e 40 46
e 40 47
e 40 55
e 40 56
e 40 58
e 40 60
e 40 62
e 40 65
e 40 67
e 40 68
e 40 69
e 40 70
e 40 72
e 40 73
e 40 75
e 40 76
e 40 78
e 40 80
e 40 81
e 40 82
e 40 84
e 40 85
e 40 86
e 40 87
e 40 96
e 40 99
e 40 100
e 41 42
e 41 43
e 41 44
e 41 47
e 41 52
e 41 53
e 41 54
e 41 55
e 41 62
e 41 63
e 41 65
e 41 66
e 41 67
e 41 68
e 41 70
e 41 71
e 41 73
e 41 74
e 41 75
e 41 78
e 41 82
e 41 83
e 41 84
e 41 85
e 41 87
e 41 88
e 41 89
e 41 90
e 41 91
e 41 92
e 41 96
e 41 99
e 42 45
e 42 49
e 42 51
e 42 53
e 42 54
e 42 55
e 42 56
e 42 58
e 42 60
e 42 61
e 42 65
e 42 67
e 42 69
e 42 72
e 42 73
e 42 74
e 42 79
e 42 80
e 42 81
e 42 82
e 42 83
e 42 90
e 42 91
e 42 92
e 42 93
e 42 95
e 42 99
e 43 49
e 43 50
e 43 51
e 43 58
e 43 60
e 43 61
e 43 62
e 43 63
e 43 64
e 43 65
e 43 68
e 43 69
e 43 73
e 43 74
e 43 76
e 43 77
e 43 80
e 43 82
e 43 83
e 43 85
e 43 88
e 43 89
e 43 90
e 43 94
e 43 95
e 43 99
e 43 100
e 44 45
e 44 46
e 44 47
e 44 48
e 44 49
e 44 53
e 44 55
e 44 56
e 44 57
e 44 58
e 44 60
e 44 61
e 44 63
e 44 64
e 44 67
e 44 68
e 44 70
e 44 71
e 44 75
e 44 77
e 44 78
e 44 80
e 44 81
e 44 85
e 44 88
e 44 90
e 44 91
e 44 92
e 44 95
e 44 96
e 44 97
e 44 98
e 44 99
e 44 100
e 45 48
e 45 50
e 45 51
e 45 53
e 45 54
e 45 55
e 45 56
e 45 57
e 45 60
e 45 62
e 45 67
e 45 68
e 45 70
e 45 72
e 45 73
e 45 74
e 45 76
e 45 77
e 45 78
e 45 88
e 45 90
e 45 91
e 45 92
e 45 93
e 45 94
e 45 95
e 45 96
e 45 98
e 45 100
e 46 48
e 46 49
e 46 50
e 46 51
e 46 53
e 46 54
e 46 56
e 46 57
e 46 58
e 46 59
e 46 60
e 46 61
e 46 63
e 46 65
e 46 66
e 46 67
e 46 68
e 46 70
e 46 71
e 46 72
e 46 74
e 46 75
e 46 76
e 46 77
e 46 79
e 46 80
e 46 81
e 46 82
e 46 84
e 46 85
e 46 88
e 46 89
e 46 90
e 46 91
e 46 92
e 46 95
e 46 96
e 46 98
e 46 99
e 46 100
e 47 49
e 47 51
e 47 52
e 47 55
e 47 57
e 47 61
e 47 62
e 47 65
e 47 66
e 47 70
e 47 71
e 47 74
e 47 75
e 47 79
e 47 81
e 47 83
e 47 84
e 47 85
e 47 86
e 47 88
e 47 89
e 47 93
e 47 94
e 47 95
e 47 96
e 48 49
e 48 52
e 48 54
e 48 56
e 48 58
e 48 59
e 48 62
e 48 63
e 48 66
e 48 68
e 48 69
e 48 71
e 48 72
e 48 73
e 48 76
e 48 78
e 48 79
e 48 81
e 48 82
e 48 84
e 48 86
e 48 87
e 48 88
e 48 92
e 48 94
e 48 96
e 48 97
e 48 98
e 49 50
e 49 52
e 49 53
e 49 54
e 49 55
e 49 58
e 49 59
e 49 60
e 49 64
e 49 66
e 49 69
e 49 75
e 49 76
e 49 79
e 49 84
e 49 86
e 49 87
e 49 89
e 49 90
e 49 94
e 49 97
e 49 99
e 49 100
e 50 52
e 50 54
e 50 55
e 50 64
e 50 69
e 50 72
e 50 75
e 50 76
e 50 78
e 50 80
e 50 82
e 50 84
e 50 86
e 50 91
e 50 96
e 50 97
e 50 98
e 51 52
e 51 55
e 51 61
e 51 62
e 51 64
e 51 66
e 51 67
e 51 68
e 51 69
e 51 71
e 51 73
e 51 75
e 51 77
e 51 80
e 51 82
e 51 87
e 51 93
e 51 94
e 51 95
e 51 98
e 51 100
e 52 56
e 52 57
e 52 58
e 52 59
e 52 62
e 52 64
e 52 66
e 52 67
e 52 70
e 52 71
e 52 74
e 52 76
e 52 81
e 52 86
e 52 87
e 52 89
e 52 91
e 52 93
e 52 94
e 52 95
e 52 96
e 52 98
e 52 99
e 52 100
e 53 58
e 53 60
e 53 61
e 53 62
e 53 65
e 53 68
e 53 70
e 53 73
e 53 74
e 53 75
e 53 78
e 53 81
e 53 83
e 53 86
e 53 87
e 53 89
e 53 90
e 53 91
e 53 92
e 53 97
e 53 98
e 53 99
e 53 100
e 54 59
e 54 61
e 54 62
e 54 64
e 54 69
e 54 71
e 54 72
e 54 76
e 54 79
e 54 85
e 54 86
e 54 87
e 54 89
e 54 91
e 54 97
e 54 99
e 54 100
e 55 57
e 55 58
e 55 61
e 55 62
e 55 63
e 55 64
e 55 65
e 55 72
e 55 75
e 55 76
e 55 77
e 55 78
e 55 80
e 55 81
e 55 83
e 55 84
e 55 85
e 55 86
e 55 87
e 55 88
e 55 90
e 55 91
e 55 93
e 55 94
e 55 95
e 55 96
e 56 57
e 56 60
e 56 61
e 56 63
e 56 65
e 56 69
e 56 73
e 56 76
e 56 78
e 56 80
e 56 85
e 56 86
e 56 89
e 56 91
e 56 92
e 56 93
e 56 94
e 56 95
e 56 98
e 56 99
e 57 61
e 57 67
e 57 68
e 57 71
e 57 73
e 57 75
e 57 80
e 57 83
e 57 85
e 57 86
e 57 88
e 57 90
e 57 93
e 57 94
e 57 95
e 57 96
e 57 97
e 57 98
e 57 99
e 58 59
e 58 60
e 58 61
e 58 63
e 58 65
e 58 68
e 58 73
e 58 76
e 58 78
e 58 79
e 58 81
e 58 83
e 58 87
e 58 88
e 58 90
e 58 95
e 58 97
e 58 98
e 58 99
e 59 60
e 59 65
e 59 66
e 59 67
e 59 68
e 59 70
e 59 71
e 59 75
e 59 77
e 59 80
e 59 81
e 59 83
e 59 84
e 59 85
e 59 87
e 59 90
e 59 92
e 59 93
e 59 96
e 59 100
e 60 61
e 60 70
e 60 71
e 60 88
e 60 89
e 60 90
e 60 92
e 60 93
e 60 94
e 60 95
e 60 96
e 60 97
e 60 98
e 60 99
e 60 100
e 61 65
e 61 67
e 61 72
e 61 73
e 61 74
e 61 78
e 61 79
e 61 82
e 61 85
e 61 86
e 61 87
e 61 88
e 61 89
e 61 90
e 61 92
e 61 94
e 61 95
e 61 98
e 61 99
e 62 64
e 62 65
e 62 69
e 62 70
e 62 74
e 62 75
e 62 81
e 62 86
e 62 87
e 62 89
e 62 90
e 62 91
e 62 93
e 63 64
e 63 66
e 63 67
e 63 68
e 63 69
e 63 71
e 63 73
e 63 74
e 63 75
e 63 77
e 63 84
e 63 85
e 63 86
e 63 89
e 63 91
e 63 93
e 63 94
e 63 95
e 63 99
e 64 65
e 64 66
e 64 68
e 64 70
e 64 72
e 64 73
e 64 74
e 64 76
e 64 78
e 64 82
e 64 83
e 64 84
e 64 85
e 64 91
e 64 95
e 64 97
e 64 99
e 65 66
e 65 67
e 65 69
e 65 70
e 65 71
e 65 82
e 65 85
e 65 87
e 65 88
e 65 89
e 65 92
e 65 93
e 65 94
e 65 97
e 65 99
e 65 100
e 66 75
e 66 85
e 66 87
e 66 90
e 66 92
e 66 93
e 66 100
e 67 72
e 67 77
e 67 81
e 67 82
e 67 83
e 67 86
e 67 87
e 67 88
e 67 93
e 67 94
e 67 96
e 67 98
e 68 69
e 68 71
e 68 75
e 68 83
e 68 84
e 68 85
e 68 87
e 68 89
e 68 90
e 68 92
e 68 95
e 68 96
e 68 99
e 68 100
e 69 73
e 69 74
e 69 80
e 69 83
e 69 84
e 69 87
e 69 88
e 69 91
e 69 92
e 69 94
e 69 99
e 70 71
e 70 74
e 70 75
e 70 78
e 70 80
e 70 86
e 70 87
e 70 88
e 70 89
e 70 90
e 70 91
e 70 95
e 70 96
e 70 98
e 70 100
e 71 74
e 71 77
e 71 78
e 71 80
e 71 85
e 71 87
e 71 88
e 71 89
e 71 91
e 71 92
e 71 94
e 71 95
e 71 96
e 71 98
e 71 99
e 71 100
e 72 73
e 72 76
e 72 78
e 72 80
e 72 81
e 72 82
e 72 86
e 72 88
e 72 89
e 72 90
e 72 91
e 72 93
e 72 98
e 72 100
e 73 76
e 73 83
e 73 85
e 73 88
e 73 91
e 73 94
e 73 95
e 73 96
e 74 79
e 74 87
e 74 89
e 74 93
e 74 96
e 74 97
e 74 98
e 74 99
e 75 82
e 75 83
e 75 85
e 75 86
e 75 89
e 75 91
e 76 80
e 76 81
e 76 83
e 76 85
e 76 88
e 76 90
e 76 91
e 76 93
e 76 94
e 76 95
e 76 99
e 77 80
e 77 82
e 77 83
e 77 87
e 77 89
e 77 96
e 77 98
e 77 99
e 78 82
e 78 87
e 78 88
e 78 89
e 78 90
e 78 91
e 78 92
e 78 98
e 78 99
e 78 100
e 79 80
e 79 81
e 79 83
e 79 84
e 79 86
e 79 87
e 79 89
e 79 90
e 79 91
e 79 93
e 79 94
e 79 95
e 79 96
e 79 97
e 79 98
e 79 99
e 79 100
e 80 87
e 80 89
e 80 91
e 80 94
e 80 96
e 80 100
e 81 82
e 81 86
e 81 88
e 81 91
e 81 92
e 81 94
e 81 95
e 81 96
e 81 97
e 81 100
e 82 86
e 82 87
e 82 88
e 82 89
e 82 93
e 82 94
e 82 99
e 82 100
e 83 84
e 83 86
e 83 87
e 83 88
e 83 89
e 83 92
e 83 93
e 83 96
e 83 98
e 83 99
e 83 100
e 84 85
e 84 86
e 84 87
e 84 89
e 84 90
e 84 91
e 84 92
e 84 94
e 84 97
e 84 99
e 85 86
e 85 96
e 85 99
e 85 100
e 86 87
e 86 89
e 86 92
e 86 93
e 86 95
e 86 99
e 87 88
e 87 89
e 87 90
e 87 92
e 87 94
e 88 89
e 88 90
e 88 91
e 88 93
e 88 96
e 88 97
e 89 91
e 89 93
e 90 94
e 90 95
e 90 100
e 91 93
e 91 95
e 91 96
e 91 97
e 91 99
e 92 93
e 92 98
e 93 94
e 93 96
e 93 97
e 93 99
e 94 98
e 94 100
e 95 99
e 95 100
e 96 97
e 96 99
e 96 100
e 97 98
e 98 99
